
Model name: lp
                x1       x2 
Maximize         2        3 
r_1              1        1 <=       70
r_2              1        2 <=      100
Type          Real     Real 
upbo            60       40 
lowbo            0        0 

Value of objective function: 170

Actual values of the variables:
x1                   40
x2                   30

Actual values of the constraints:
r_1                  70
r_2                  100

Dual values with from - till limits:
r_1                         1        60       80
r_2                         1        80      110
x1                          0   -1e+024   1e+024
x2                          0   -1e+024   1e+024
